
Gurobi 8.0.0 (mac64, Python) logging started Wed Apr 17 13:48:18 2019

Academic license - for non-commercial use only
Read LP format model from file /tmp/infeasible.lp
Reading time = 1.18 seconds
obj: 167465 rows, 368946 columns, 979712 nonzeros
Iteration    Objective       Primal Inf.    Dual Inf.      Time
       0    6.0480000e+03   3.596050e+04   0.000000e+00      0s
   43052    3.3910031e+03   1.364228e+04   0.000000e+00      5s
   52868    2.7957570e+03   1.074433e+04   0.000000e+00     10s
   61658    2.3960438e+03   8.157880e+03   0.000000e+00     15s

IIS computed: 7 constraints and 15 bounds
IIS runtime: 18.80 seconds
Read LP format model from file /tmp/infeasible.lp
Reading time = 2.53 seconds
obj: 437677 rows, 674172 columns, 2438920 nonzeros
Presolve removed 98454 rows and 111234 columns (presolve time = 5s) ...
Presolve removed 98454 rows and 328479 columns
Presolve time: 8.51s

Explored 0 nodes (0 simplex iterations) in 8.98 seconds
Thread count was 1 (of 4 available processors)

Solution count 0

Model is infeasible
Best objective -, best bound -, gap -

Computing Irreducible Inconsistent Subsystem (IIS)...

      Constraints           Bounds       Runtime
     Min       Max       Min      Max
------------------------------------------------
        0   437677         0  1345374         9s
        0   437677         0  1345374       260s
        0   437677         0  1345374       260s
        0   437677         0  1345374       260s

Non-minimal IIS computed: 437677 constraints, 1345374 bounds
IIS runtime: 260.41 seconds
Optimize a model with 437677 rows, 674172 columns and 2438920 nonzeros
Variable types: 672687 continuous, 1485 integer (1485 binary)
Coefficient statistics:
  Matrix range     [1e-02, 2e+00]
  Objective range  [1e-02, 1e+04]
  Bounds range     [1e+00, 1e+00]
  RHS range        [1e+00, 1e+00]
Presolve removed 98454 rows and 111225 columns (presolve time = 5s) ...
Presolve removed 98454 rows and 328479 columns
Presolve time: 8.76s

Explored 0 nodes (0 simplex iterations) in 9.10 seconds
Thread count was 1 (of 4 available processors)

Solution count 0

Model is infeasible
Best objective -, best bound -, gap -

Computing Irreducible Inconsistent Subsystem (IIS)...

      Constraints           Bounds       Runtime
     Min       Max       Min      Max
------------------------------------------------
        0   437677         0  1345374         0s
        0   437677         0  1345374         3s

Non-minimal IIS computed: 437677 constraints, 1345374 bounds
IIS runtime: 2.72 seconds
Read LP format model from file /tmp/infeasible.lp
Reading time = 2.49 seconds
obj: 441169 rows, 680907 columns, 2462587 nonzeros
Presolve removed 98586 rows and 111507 columns (presolve time = 5s) ...
Presolve removed 98586 rows and 325188 columns
Presolve time: 9.04s

Explored 0 nodes (0 simplex iterations) in 9.49 seconds
Thread count was 1 (of 4 available processors)

Solution count 0

Model is infeasible
Best objective -, best bound -, gap -

Computing Irreducible Inconsistent Subsystem (IIS)...

      Constraints           Bounds       Runtime
     Min       Max       Min      Max
------------------------------------------------
        0   441169         0  1358814        10s
        0   441169         0  1358814        58s
        0   441169         0  1358814        58s

Non-minimal IIS computed: 441169 constraints, 1358814 bounds
IIS runtime: 58.02 seconds

Computing Irreducible Inconsistent Subsystem (IIS)...

      Constraints           Bounds       Runtime
     Min       Max       Min      Max
------------------------------------------------
        0   441169         0  1358814         0s
        0   441169         0  1358814        20s
        0   441169         0  1358814        37s
        0   441169         0  1358814        53s
        0   441169         0  1358814        70s
        0   441169         0  1358814        87s
        0   441169         0  1358814       103s
        0   441169         0  1358814       108s
        0   441169         0  1358814       108s

Non-minimal IIS computed: 441169 constraints, 1358814 bounds
IIS runtime: 107.58 seconds
Read LP format model from file /tmp/infeasible.lp
Reading time = 1.00 seconds
obj: 155634 rows, 254028 columns, 1033845 nonzeros
Presolve removed 28110 rows and 126411 columns
Presolve time: 3.97s

Explored 0 nodes (0 simplex iterations) in 4.23 seconds
Thread count was 1 (of 4 available processors)

Solution count 0

Model is infeasible
Best objective -, best bound -, gap -

Computing Irreducible Inconsistent Subsystem (IIS)...

      Constraints           Bounds       Runtime
     Min       Max       Min      Max
------------------------------------------------
        0   155634         0   506256         4s
        0   155634         0   506256       419s
        0   155634         0   506256       419s

Non-minimal IIS computed: 155634 constraints, 506256 bounds
IIS runtime: 418.82 seconds
Read LP format model from file /tmp/infeasible.lp
Reading time = 0.93 seconds
obj: 155643 rows, 254028 columns, 1033854 nonzeros
Optimize a model with 155643 rows, 254028 columns and 1033854 nonzeros
Variable types: 253128 continuous, 900 integer (900 binary)
Coefficient statistics:
  Matrix range     [1e-02, 1e+00]
  Objective range  [1e-02, 1e+10]
  Bounds range     [1e+00, 1e+00]
  RHS range        [1e-01, 1e+00]
Warning: Model contains large objective coefficients
         Consider reformulating model or setting NumericFocus parameter
         to avoid numerical issues.
Presolve removed 90607 rows and 146508 columns
Presolve time: 4.66s

Explored 0 nodes (0 simplex iterations) in 4.94 seconds
Thread count was 1 (of 4 available processors)

Solution count 0

Model is infeasible
Best objective -, best bound -, gap -

Computing Irreducible Inconsistent Subsystem (IIS)...

      Constraints           Bounds       Runtime
     Min       Max       Min      Max
------------------------------------------------
        0   155643         0   506256         0s
        0   155643         0   506256        56s
        0   155643         0   506256        56s

Non-minimal IIS computed: 155643 constraints, 506256 bounds
IIS runtime: 56.37 seconds
Read LP format model from file /tmp/infeasible.lp
Reading time = 0.94 seconds
obj: 154344 rows, 254028 columns, 1032555 nonzeros
Presolve removed 88474 rows and 143328 columns
Presolve time: 4.57s

Explored 0 nodes (0 simplex iterations) in 4.84 seconds
Thread count was 1 (of 4 available processors)

Solution count 0

Model is infeasible
Best objective -, best bound -, gap -

Computing Irreducible Inconsistent Subsystem (IIS)...

      Constraints           Bounds       Runtime
     Min       Max       Min      Max
------------------------------------------------
        0   154344         0   506256         5s
        0   154344         0   506256      1314s
        0   123553         0   503086      1318s
        0   123553         0   503086      1322s
        0   123553         0   503086      1326s
        0   123553         0   503086      1334s
        0    98801         0   488826      1337s
        0    98801         0   488826      1342s
        0    98801         0   488826      1347s
        0    98801         0   488826      1350s
        0    98801         0   488826      1357s
        0    98801         0   488826      1362s
        0    98801         0   488826      1367s
        0    98801         0   488826      1373s
        0    98801         0   488826      1376s
        0    98801         0   488826      1382s
        0    98801         0   488826      1386s
        0    98801         0   488826      1392s
        0    98801         0   488826      1398s
        0    98801         0   488826      1401s
        0    93868         0   483766      1407s
        0    93868         0   483766      1410s
        0    89303         0   477686      1415s
        0    89303         0   477686      1420s
        0    89303         0   477686      1426s
        0    89303         0   477686      1431s
        0    89303         0   477686      1436s
        0    89303         0   477686      1442s
        0    89303         0   477686      1447s
        0    89303         0   477686      1450s
        0    84870         0   471426      1457s
        0    84870         0   471426      1462s
        0    84870         0   471426      1467s
        0    80636         0   464794      1471s
        0    78668         0   461318      1477s
        0    76682         0   457514      1481s
        0    74664         0   453234      1486s
        0    74664         0   453234      1492s
        0    71049         0   445256      1496s
        0    69230         0   440850      1501s
        0    64220         0   426126      1506s
        0    64220         0   426126      1511s
        0    59630         0   411930      1516s
        0    56724         0   401690      1521s
        0    52547         0   386438      1526s
        0    52547         0   386438      1531s
        0    52547         0   386438      1535s
        0    50592         0   379244      1541s
        0    49958         0   375978      1545s
        0    49336         0   373368      1550s
        0    48733         0   370758      1556s
        0    46297         0   360734      1560s
        0    46297         0   360734      1566s
        0    45177         0   355922      1570s
        0    45177         0   355922      1575s
        0    43516         0   348366      1580s
        0    42450         0   343492      1585s
        0    41939         0   340136      1590s
        0    40473         0   332570      1596s
        0    38451         0   322962      1600s
        0    36994         0   315396      1605s
        0    35214         0   303198      1610s
        0    34323         0   297174      1615s
        0    33011         0   290264      1620s
        0    32596         0   288072      1625s
        0    30608         0   275100      1630s
        0    30234         0   272244      1635s
        0    29461         0   268308      1640s
        0    28685         0   264388      1645s
        0    28364         0   262186      1651s
        0    27143         0   253866      1655s
        0    26818         0   251692      1660s
        0    25790         0   244298      1665s
        0    24826         0   237872      1670s
        0    23726         0   228268      1675s
        0    22732         0   220762      1680s
        0    21631         0   210648      1685s
        0    20943         0   203982      1690s
        0    20342         0   198984      1695s
        0    19461         0   192210      1700s
        0    18982         0   187430      1705s
        0    17913         0   177910      1710s
        0    17175         0   170854      1715s
        0    16767         0   167376      1720s
        0    16436         0   164698      1725s
        0    15545         0   157056      1730s
        0    14970         0   153206      1735s
        0    13997         0   144436      1740s
        0    13230         0   136958      1745s
        0    12683         0   133088      1750s
        0    12009         0   126378      1755s
        0    11545         0   121258      1760s
        0    11074         0   116764      1765s
        0    10378         0   109600      1770s
        0    10153         0   107598      1775s
        0     9839         0   103658      1780s
        0     9483         0    98760      1785s
        0     9028         0    95528      1790s
        0     8897         0    94174      1795s
        0     8624         0    91676      1800s
        0     8408         0    88248      1805s
        0     8313         0    87348      1810s
        0     7999         0    84810      1815s
        0     7624         0    80472      1820s
        0     7275         0    76306      1825s
        0     6870         0    72198      1830s
        0     6560         0    69684      1835s
        0     6280         0    66422      1840s
        0     6057         0    64340      1845s
        0     5938         0    63604      1850s
        0     5639         0    59438      1855s
        0     5326         0    56216      1860s
        0     5161         0    54570      1865s
        0     5103         0    54212      1870s
        0     4918         0    53000      1875s
        0     4801         0    52216      1880s
        0     4674         0    50250      1885s
        0     4431         0    48122      1890s
        0     4306         0    46730      1895s
        0     4114         0    44974      1900s
        0     3984         0    43412      1905s
        0     3867         0    40818      1910s
        0     3737         0    39022      1915s
        0     3603         0    37694      1920s
        0     3542         0    37156      1925s
        0     3408         0    36260      1930s
        0     3334         0    35390      1935s
        0     3235         0    34754      1940s
        0     3120         0    33068      1945s
        0     2921         0    31064      1950s
        0     2786         0    29222      1955s
        0     2719         0    28370      1960s
        0     2627         0    27562      1965s
        0     2539         0    26400      1970s
        0     2432         0    24876      1975s
        0     2354         0    23966      1980s
        0     2267         0    23388      1985s
        0     2204         0    22198      1990s
        0     2078         0    21338      1995s
        0     1995         0    20568      2000s
        0     1904         0    18982      2005s
        0     1852         0    18646      2010s
        0     1804         0    18370      2015s
        0     1712         0    17370      2020s
        0     1627         0    16820      2025s
        0     1594         0    16404      2030s
        1     1580         0    16376      2035s
        1     1564         0    16346      2040s
        1     1548         0    16314      2045s
        1     1531         0    16280      2050s
        1     1515         0    16248      2055s
        1     1500         0    16220      2060s
        1     1484         0    16190      2065s
        1     1468         0    16160      2070s
        1     1452         0    16128      2075s
        1     1436         0    16096      2080s
        1     1419         0    16062      2085s
        1     1403         0    16030      2090s
        1     1387         0    16002      2095s
        1     1371         0    15972      2100s
        1     1355         0    15940      2105s
        1     1338         0    15910      2110s
        1     1322         0    15854      2115s
        4     1309         0    15750      2120s
        7     1297         0    15654      2125s
        7     1281         0    15526      2130s
       10     1268         0    15040      2135s
       11     1253         0    14924      2140s
       14     1240         0    14820      2145s
       17     1228         0    14544      2150s
       19     1214         0    14432      2155s
       20     1199         0    14312      2160s
       23     1186         0    13836      2165s
       26     1173         0    13736      2170s
       26     1157         0    13612      2175s
       26     1141         0    13484      2180s
       26     1124         0    13348      2185s
       28     1110         0    13236      2190s
       30     1097         0    12556      2195s
       35     1086         0    12468      2200s
       50     1086         0    12468      2205s
       65     1086         0    12468      2210s
       80     1086         0    12468      2215s
       87     1077         0    12396      2220s
       87     1061         0    12072      2225s
       87     1045         0    11944      2230s
       90     1032         0    11840      2235s
       90     1016         0    11716      2240s
       93     1003         0    11612      2245s
       93      987         0    11488      2250s
       93      971         0    11360      2255s
       93      954         0    11224      2260s
       93      938         0    11096      2265s
       96      925         0    10992      2270s
       98      911         0    10880      2275s
      102      900         0    10792      2280s
      102      884         0    10664      2285s
      102      867         0    10142      2290s
      102      851         0    10014      2295s
      102      835         0     9886      2300s
      102      819         0     9758      2305s
      102      803         0     9446      2310s
      102      787         0     9318      2315s
      108      777         0     9238      2320s
      109      762         0     9118      2325s
      109      746         0     8990      2330s
      109      731         0     8878      2335s
      109      715         0     8750      2340s
      109      699         0     8630      2345s
      112      686         0     8526      2350s
      115      673         0     8422      2355s
      118      660         0     8322      2360s
      118      644         0     8014      2365s
      118      628         0     7886      2370s
      121      616         0     7790      2375s
      124      603         0     7686      2380s
      127      590         0     7582      2385s
      127      574         0     7454      2390s
      127      557         0     6138      2395s
      130      544         0     6034      2400s
      133      532         0     5938      2405s
      133      515         0     5802      2410s
      133      499         0     5486      2415s
      133      483         0     5362      2420s
      133      467         0     5238      2425s
      133      451         0     5110      2430s
      133      435         0     4982      2435s
      133      419         0     4854      2440s
      133      403         0     4726      2445s
      133      388         0     4606      2450s
      133      372         0     4478      2455s
      133      357         0     4358      2460s
      133      341         0     3838      2465s
      133      325         0     3710      2470s
      133      309         0     3582      2475s
      133      293         0     3454      2480s
      133      276         0     3318      2485s
      133      260         0     3190      2490s
      133      244         0     3066      2495s
      133      228         0     2742      2500s
      133      212         0     2614      2505s
      133      196         0     2486      2510s
      133      180         0     1966      2515s
      133      164         0     1452      2520s
      133      148         0      930      2525s
      134      134         0      406      2530s
      134      134         0      406      2535s
      134      134         0      406      2540s
      134      134         0      406      2545s
      134      134         7      400      2550s
      134      134        13      392      2555s
      134      134        23      387      2560s
      134      134        30      379      2565s
      134      134        42      377      2570s
      134      134        57      377      2575s
      134      134        71      377      2580s
      134      134        86      377      2585s
      134      134       100      377      2590s
      134      134       115      377      2595s
      134      134       128      377      2600s
      134      134       140      374      2605s
      134      134       147      366      2610s
      134      134       156      361      2615s
      134      134       163      353      2620s
      134      134       171      346      2625s
      134      134       179      339      2630s
      134      134       187      333      2635s
      134      134       199      330      2640s
      134      134       211      328      2645s
      134      134       221      324      2650s
      134      134       232      321      2655s
      134      134       246      321      2660s
      134      134       261      321      2665s
      134      134       275      321      2670s
      134      134       288      320      2675s
      134      134       294      312      2680s
      134      134       303      307      2685s
      134      134       305      305      2687s

IIS computed: 134 constraints, 305 bounds
IIS runtime: 2686.67 seconds
Read LP format model from file /tmp/infeasible.lp
Reading time = 0.06 seconds
obj: 9894 rows, 15483 columns, 55335 nonzeros
Presolve removed 1084 rows and 4628 columns
Presolve time: 0.02s

Explored 0 nodes (0 simplex iterations) in 0.04 seconds
Thread count was 1 (of 4 available processors)

Solution count 0

Model is infeasible
Best objective -, best bound -, gap -

Computing Irreducible Inconsistent Subsystem (IIS)...

      Constraints           Bounds       Runtime
     Min       Max       Min      Max
------------------------------------------------
        0     9894         0    30876         0s
        5        5        12       12         3s

IIS computed: 5 constraints, 12 bounds
IIS runtime: 2.75 seconds
Read LP format model from file /tmp/infeasible.lp
Reading time = 0.10 seconds
obj: 16149 rows, 14232 columns, 75351 nonzeros
Presolve removed 5404 rows and 4285 columns
Presolve time: 0.02s

Explored 0 nodes (0 simplex iterations) in 0.04 seconds
Thread count was 1 (of 4 available processors)

Solution count 0

Model is infeasible
Best objective -, best bound -, gap -

Computing Irreducible Inconsistent Subsystem (IIS)...

      Constraints           Bounds       Runtime
     Min       Max       Min      Max
------------------------------------------------
        0    13647         0    28374         0s
       10       33         0      174         5s
       10       10        26       26         7s

IIS computed: 10 constraints, 26 bounds
IIS runtime: 6.64 seconds
Read LP format model from file /tmp/infeasible.lp
Reading time = 0.09 seconds
obj: 16149 rows, 14232 columns, 80355 nonzeros
Presolve removed 3736 rows and 3719 columns
Presolve time: 0.02s

Explored 0 nodes (0 simplex iterations) in 0.05 seconds
Thread count was 1 (of 4 available processors)

Solution count 0

Model is infeasible
Best objective -, best bound -, gap -

Computing Irreducible Inconsistent Subsystem (IIS)...

      Constraints           Bounds       Runtime
     Min       Max       Min      Max
------------------------------------------------
        0    16149         0    28374         0s
        1       19         0       96         5s
        8        8        12       12         6s

IIS computed: 8 constraints, 12 bounds
IIS runtime: 5.98 seconds
Read LP format model from file /tmp/infeasible.lp
Reading time = 0.06 seconds
obj: 7392 rows, 15483 columns, 52833 nonzeros
Presolve removed 1084 rows and 2358 columns
Presolve time: 0.01s

Explored 0 nodes (0 simplex iterations) in 0.03 seconds
Thread count was 1 (of 4 available processors)

Solution count 0

Model is infeasible
Best objective -, best bound -, gap -

Computing Irreducible Inconsistent Subsystem (IIS)...

      Constraints           Bounds       Runtime
     Min       Max       Min      Max
------------------------------------------------
        0     7392         0    30876         0s
        4        4         0        0         0s

IIS computed: 4 constraints, 0 bounds
IIS runtime: 0.32 seconds

Gurobi 8.0.0 (mac64, Python) logging started Tue Jul  9 11:23:29 2019

Academic license - for non-commercial use only
Error reading LP format file /tmp/infeasible.lp at line 7
Malformed term in expression
Neighboring tokens: " - ? y;0;1;2 - 4e+300 y;0;1;3 - 72.1091697425723 "

Freed default Gurobi environment

Gurobi 8.0.0 (mac64, Python) logging started Tue Jul  9 12:12:33 2019

Academic license - for non-commercial use only
Warning: lp file contains 252 repeated variable(s) in constraints, grouped them, 0 cancellation
Read LP format model from file /tmp/infeasible.lp
Reading time = 0.01 seconds
obj: 415 rows, 2428 columns, 5232 nonzeros
Optimize a model with 415 rows, 2428 columns and 5232 nonzeros
Coefficient statistics:
  Matrix range     [1e+00, 9e+03]
  Objective range  [8e+00, 2e+04]
  Bounds range     [1e+00, 1e+00]
  RHS range        [1e+00, 1e+00]
Presolve removed 380 rows and 2428 columns
Presolve time: 0.00s

Solved in 0 iterations and 0.00 seconds
Infeasible model

IIS computed: 2 constraints and 0 bounds
IIS runtime: 0.00 seconds
Read LP format model from file /tmp/infeasible.lp
Reading time = 0.01 seconds
obj: 415 rows, 2556 columns, 5484 nonzeros
Iteration    Objective       Primal Inf.    Dual Inf.      Time
       0   -1.0972279e+04   2.482188e+02   0.000000e+00      0s

IIS computed: 35 constraints and 4 bounds
IIS runtime: 0.01 seconds
Freed default Gurobi environment

Gurobi 8.0.0 (mac64, Python) logging started Wed Jul 10 11:26:46 2019

Academic license - for non-commercial use only
Read LP format model from file /tmp/infeasible.lp
Reading time = 0.06 seconds
obj: 3642 rows, 9392 columns, 21902 nonzeros
Iteration    Objective       Primal Inf.    Dual Inf.      Time
       0    6.1035159e-08   1.000000e+03   0.000000e+00      0s
IIS runtime: 0.05 seconds
Freed default Gurobi environment

Gurobi 8.0.0 (mac64, Python) logging started Wed Jul 10 11:27:54 2019

Academic license - for non-commercial use only
Read LP format model from file /tmp/infeasible.lp
Reading time = 0.04 seconds
obj: 4376 rows, 9392 columns, 22636 nonzeros
Iteration    Objective       Primal Inf.    Dual Inf.      Time
       0    6.1035159e-08   1.000000e+03   0.000000e+00      0s
IIS runtime: 0.03 seconds
Optimize a model with 4376 rows, 9392 columns and 22636 nonzeros
Coefficient statistics:
  Matrix range     [1e-06, 5e+02]
  Objective range  [8e-09, 2e+03]
  Bounds range     [1e+00, 5e+02]
  RHS range        [1e+00, 1e+00]

Solved in 620 iterations and 0.00 seconds
Optimal objective -1.566542021e+04
Read LP format model from file /tmp/infeasible.lp
Reading time = 0.04 seconds
obj: 3698 rows, 9392 columns, 21958 nonzeros
Optimize a model with 3698 rows, 9392 columns and 21958 nonzeros
Coefficient statistics:
  Matrix range     [1e-06, 5e+02]
  Objective range  [8e-09, 2e+03]
  Bounds range     [1e+00, 5e+02]
  RHS range        [1e+00, 1e+00]
Presolve removed 3182 rows and 4888 columns
Presolve time: 0.02s
Presolved: 516 rows, 4504 columns, 9008 nonzeros

Iteration    Objective       Primal Inf.    Dual Inf.      Time
       0   -1.4575065e+04   1.865025e+02   0.000000e+00      0s
     115   -1.4588999e+04   0.000000e+00   0.000000e+00      0s

Solved in 115 iterations and 0.04 seconds
Optimal objective -1.458899914e+04
Freed default Gurobi environment

Gurobi 8.0.0 (mac64, Python) logging started Wed Jul 10 11:37:06 2019

Academic license - for non-commercial use only
Read LP format model from file /tmp/infeasible.lp
Reading time = 0.05 seconds
obj: 4016 rows, 9392 columns, 22276 nonzeros
Optimize a model with 4016 rows, 9392 columns and 22276 nonzeros
Coefficient statistics:
  Matrix range     [1e-06, 5e+02]
  Objective range  [8e-09, 2e+03]
  Bounds range     [1e+00, 5e+02]
  RHS range        [1e+00, 1e+00]
Presolve removed 3500 rows and 5046 columns
Presolve time: 0.01s
Presolved: 516 rows, 4346 columns, 8692 nonzeros

Iteration    Objective       Primal Inf.    Dual Inf.      Time
       0   -2.3010696e+04   1.770550e+02   0.000000e+00      0s
     115   -2.3025583e+04   0.000000e+00   0.000000e+00      0s

Solved in 115 iterations and 0.03 seconds
Optimal objective -2.302558278e+04
Freed default Gurobi environment
